4 
5  05 21 36 51 
6  06 21 36 51 
7  06 21 36 51 
8  06 21 36 51 
9  06 21 36 51 
10  06 21 36 51 
11  06 21 36 51 
12  06 21 36 51 
13  06 23 38 53 
14  08 23 38 53 
15  08 23 38 53 
16  08 23 38 53 
17  08 23 38 53 
18  08 23 38 53 
19  08 21 36 51 
20  06 21 36 51 
21  06 21 36 51 
22  06 23 41 
23  11 
0 
